15
0 252 320 242 606 190 159 632 449 542 761 771 274 559 467
252 0 70 482 354 442 296 450 199 636 515 549 361 342 224
320 70 0 552 288 511 348 428 140 690 455 505 421 307 172
242 482 552 0 829 95 344 780 668 445 969 946 288 740 678
606 354 288 829 0 796 629 356 161 871 183 308 643 224 160
190 442 511 95 796 0 259 789 637 527 947 943 331 733 653
159 296 348 344 629 259 0 734 489 699 802 845 433 637 518
632 450 428 780 356 789 734 0 326 637 327 195 510 140 285
449 199 140 668 161 637 489 326 0 731 315 370 488 190 41
542 636 690 445 871 527 699 637 731 0 936 833 282 684 715
761 515 455 969 183 947 802 327 315 936 0 182 748 253 294
771 549 505 946 308 943 845 195 370 833 182 0 691 211 333
274 361 421 288 643 331 433 510 488 282 748 691 0 500 483
559 342 307 740 224 733 637 140 190 684 253 211 500 0 148
467 224 172 678 160 653 518 285 41 715 294 333 483 148 0
